52488	1
48139	315
50189	13
48660	183
51739	39
18462	12
48176	274
57136	1
48692	1
52792	14
49721	3
49991	4
38216	1
58187	2
51276	5
48973	2
49234	165
49757	79
49758	2
51294	2
54624	1
37984	1
50018	244
53090	1
54370	214
56418	3
43366	2
49000	1
57708	1
54382	87
41327	11
41074	3
42361	1
49536	16
50306	1
49284	18
43142	1
49030	2
46471	4
49543	17
48266	13
48267	896
37515	10
58508	26
50325	28
55958	2
38553	32
49567	1
52387	1
13731	3
52135	33
48296	-1
55469	1
49075	5
28852	13
56248	2
46264	6
49340	86
51136	1
40901	1
56777	45
47820	1
47827	6
48861	659
55267	22
49892	1
48870	140
50929	131
57841	1
19444	1
49909	301
55798	121
52474	102
